% ----DATA VARIABLES----

t=15;%number of attributes
k=6;%max length of the support set
n=40;%number of positive instances
m=40;%number of negative instances
c=5;%number of atMostOne Constraints

% ----OMEGAS----

omegap= [| 1, 0, 1, 1, 0, 0, 1, 0, 1, 1, 1, 0, 0, 0, 1|
 1, 1, 1, 1, 0, 0, 0, 1, 0, 0, 1, 1, 0, 0, 1|
 1, 1, 0, 1, 0, 1, 0, 0, 0, 0, 0, 0, 1, 1, 1|
 0, 0, 0, 0, 0, 1, 0, 1, 1, 0, 1, 0, 1, 0, 0|
 0, 0, 0, 0, 0, 0, 0, 1, 1, 0, 0, 0, 0, 0, 1|
 0, 1, 1, 1, 0, 0, 0, 1, 1, 1, 0, 0, 0, 0, 0|
 0, 1, 0, 0, 1, 1, 1, 1, 1, 1, 0, 0, 1, 1, 0|
 1, 0, 1, 1, 1, 0, 0, 0, 0, 1, 1, 0, 1, 0, 1|
 1, 1, 0, 0, 0, 1, 0, 1, 0, 0, 0, 1, 1, 0, 1|
 1, 1, 1, 1, 0, 0, 1, 0, 0, 0, 1, 1, 0, 0, 1|
 0, 1, 1, 1, 1, 0, 0, 1, 0, 1, 1, 0, 0, 1, 0|
 1, 1, 0, 0, 0, 1, 1, 1, 0, 1, 1, 0, 1, 0, 0|
 0, 0, 1, 1, 0, 0, 1, 1, 1, 0, 0, 1, 1, 1, 1|
 0, 0, 1, 0, 0, 1, 1, 0, 1, 1, 0, 0, 1, 0, 1|
 1, 0, 1, 1, 1, 1, 0, 1, 0, 0, 1, 0, 0, 1, 0|
 0, 1, 1, 1, 1, 0, 1, 1, 1, 1, 1, 1, 0, 1, 0|
 0, 1, 1, 0, 1, 0, 0, 1, 0, 1, 0, 1, 0, 1, 0|
 1, 0, 1, 1, 1, 0, 0, 0, 1, 0, 1, 0, 1, 0, 1|
 1, 0, 0, 1, 1, 1, 1, 0, 1, 1, 1, 1, 0, 1, 0|
 0, 0, 1, 1, 1, 0, 1, 0, 1, 1, 0, 0, 0, 1, 0|
 0, 0, 0, 0, 0, 1, 1, 0, 1, 1, 1, 1, 1, 1, 0|
 0, 1, 0, 1, 1, 0, 1, 1, 1, 1, 0, 1, 0, 1, 1|
 0, 1, 0, 1, 0, 1, 0, 1, 1, 0, 1, 1, 1, 1, 1|
 1, 1, 1, 0, 0, 1, 0, 0, 0, 1, 1, 1, 0, 0, 0|
 0, 0, 0, 0, 0, 1, 1, 1, 0, 1, 1, 0, 1, 0, 1|
 1, 0, 0, 1, 1, 1, 1, 0, 1, 1, 0, 1, 0, 0, 1|
 0, 1, 0, 1, 0, 1, 1, 0, 0, 1, 0, 0, 0, 0, 1|
 1, 0, 0, 0, 0, 1, 1, 0, 0, 0, 0, 0, 0, 0, 1|
 0, 0, 1, 0, 0, 1, 0, 1, 1, 0, 1, 0, 0, 1, 0|
 0, 1, 0, 1, 1, 0, 1, 1, 0, 0, 0, 0, 0, 0, 1|
 1, 0, 1, 1, 0, 1, 1, 1, 0, 1, 1, 0, 0, 1, 0|
 0, 1, 1, 1, 1, 0, 1, 1, 0, 0, 0, 0, 1, 0, 1|
 1, 0, 1, 0, 0, 1, 0, 1, 0, 0, 1, 1, 0, 1, 0|
 0, 1, 0, 0, 1, 0, 1, 0, 1, 0, 0, 1, 1, 0, 1|
 0, 1, 0, 1, 1, 0, 1, 1, 0, 1, 0, 1, 1, 0, 1|
 0, 0, 1, 1, 0, 0, 1, 0, 1, 0, 0, 0, 1, 1, 1|
 0, 1, 1, 0, 1, 1, 1, 1, 0, 0, 1, 0, 1, 1, 0|
 1, 1, 0, 0, 1, 0, 0, 0, 1, 1, 0, 1, 0, 1, 0|
 0, 0, 1, 1, 0, 1, 0, 0, 0, 1, 1, 1, 1, 0, 1|
 1, 1, 1, 0, 0, 0, 0, 1, 1, 1, 1, 0, 0, 0, 0|];

omegan= [| 0, 0, 1, 1, 0, 1, 1, 0, 1, 1, 0, 1, 1, 0, 0|
 0, 1, 0, 1, 1, 0, 0, 1, 1, 0, 1, 0, 0, 1, 0|
 1, 1, 0, 0, 1, 1, 1, 1, 1, 0, 0, 0, 0, 1, 1|
 0, 0, 1, 0, 0, 0, 0, 1, 0, 1, 0, 0, 1, 1, 1|
 1, 0, 0, 0, 0, 1, 1, 1, 0, 1, 1, 1, 1, 1, 0|
 1, 1, 0, 0, 0, 1, 1, 1, 0, 0, 1, 0, 1, 0, 0|
 1, 1, 1, 0, 0, 1, 0, 1, 1, 0, 1, 1, 1, 1, 0|
 1, 0, 1, 1, 0, 0, 0, 0, 0, 0, 1, 0, 0, 0, 0|
 0, 0, 0, 1, 1, 1, 0, 0, 0, 1, 1, 1, 1, 1, 0|
 0, 1, 1, 1, 0, 1, 0, 0, 0, 1, 1, 0, 0, 0, 1|
 1, 1, 1, 1, 1, 0, 0, 0, 0, 0, 1, 0, 0, 1, 1|
 1, 0, 0, 1, 0, 0, 1, 0, 0, 1, 0, 0, 0, 1, 1|
 0, 0, 1, 1, 1, 0, 1, 1, 1, 0, 0, 0, 0, 1, 1|
 0, 1, 1, 1, 1, 1, 0, 1, 1, 0, 0, 1, 1, 0, 1|
 1, 0, 0, 0, 0, 1, 1, 0, 1, 0, 1, 1, 0, 0, 0|
 1, 1, 0, 0, 0, 0, 0, 0, 0, 1, 0, 1, 1, 0, 1|
 0, 1, 1, 0, 0, 0, 1, 0, 1, 1, 0, 1, 0, 1, 0|
 0, 1, 1, 1, 1, 0, 1, 0, 0, 1, 0, 1, 0, 1, 0|
 0, 1, 1, 0, 1, 0, 0, 0, 1, 1, 0, 1, 0, 1, 1|
 1, 0, 0, 0, 1, 0, 1, 1, 0, 0, 1, 0, 1, 0, 0|
 1, 0, 0, 0, 0, 0, 0, 1, 0, 1, 1, 1, 1, 0, 1|
 1, 1, 0, 0, 1, 0, 1, 1, 1, 1, 0, 0, 1, 0, 0|
 0, 0, 1, 0, 0, 1, 0, 0, 0, 1, 0, 1, 0, 1, 1|
 0, 1, 0, 0, 0, 1, 1, 0, 0, 1, 1, 0, 1, 1, 0|
 0, 1, 0, 0, 0, 0, 0, 0, 1, 1, 1, 0, 1, 0, 1|
 1, 1, 1, 0, 1, 0, 1, 1, 1, 1, 1, 1, 1, 0, 1|
 1, 0, 0, 1, 1, 1, 0, 0, 1, 0, 0, 0, 0, 1, 1|
 1, 1, 1, 0, 1, 1, 0, 0, 0, 0, 0, 1, 0, 1, 0|
 0, 0, 0, 0, 0, 0, 0, 0, 1, 1, 0, 0, 0, 0, 0|
 0, 1, 0, 1, 0, 1, 1, 1, 1, 0, 1, 1, 0, 0, 1|
 1, 0, 0, 1, 1, 1, 0, 1, 0, 0, 0, 0, 1, 0, 0|
 1, 0, 1, 1, 0, 1, 0, 0, 1, 1, 1, 1, 0, 0, 0|
 0, 0, 1, 1, 0, 1, 0, 0, 0, 0, 1, 0, 0, 0, 0|
 1, 1, 1, 1, 0, 0, 0, 0, 1, 1, 0, 1, 1, 0, 1|
 1, 0, 1, 0, 0, 1, 1, 0, 1, 0, 1, 1, 0, 0, 1|
 0, 1, 1, 0, 0, 1, 1, 1, 1, 0, 1, 1, 0, 1, 0|
 0, 1, 0, 1, 0, 0, 0, 0, 1, 1, 1, 1, 1, 0, 1|
 1, 0, 1, 1, 1, 0, 1, 1, 0, 1, 1, 1, 1, 0, 0|
 0, 0, 1, 0, 1, 1, 1, 1, 0, 0, 1, 0, 0, 1, 1|
 1, 0, 0, 1, 0, 1, 1, 1, 0, 0, 1, 1, 1, 0, 1|];

% ----CONSTRAINS----

atMostOne=[{10, 8, 2}, {14, 10}, {11, 10, 5, 12}, {13, 6}, {12, 2, 8, 3, 9, 4}];